#
# Set up system
#
boundary p p p
units metal
atom_style atomic
newton on

read_restart restart

#
# Interaction
#
pair_style mdcore Tersoff
pair_coeff * * Si
#pair_style tersoff
#pair_coeff * * Si.tersoff Si


#
# Screen output
#
thermo 100
thermo_style custom step ke pe etotal temp fnorm press vol
thermo_modify format float "%14.8f" norm no flush yes


#
# Langevin molecular dynamics
#
timestep 0.0001
fix nve all nve
run 1000

